(set-info :smt-lib-version 2.6)
(set-logic QF_S)
(set-info :source |
Generated by: Murphy Berzish, Mitja Kulczynski, Federico Mora, Florin Manea, Joel Day, Dirk Nowotka, Vijay Ganesh, Zhengyang Lu
Generated on: 2020-10-01
Description: Translated from a collection of real-world regex queries, AutomataArk, collected by Loris D’Antoni and Fang Wang: https://github.com/lorisdanto/automatark
Application: Evaluate solvers on real-world regex queries
Target solver: Z3str3RE, CVC4, OSTRICH, Z3seq, Z3str3, Z3-Trau
Publications: Berzish, M., Kulczynski, M., Mora, F., Manea, F., Day, J. D., Nowotka, D., & Ganesh, V. (2021, July). An SMT solver for regular expressions and linear arithmetic over string length. In CAV 2021.
|)
(set-info :license "https://creativecommons.org/licenses/by/4.0/")
(set-info :category "industrial")
(set-info :status unsat)

(declare-const X String)
(assert (str.in_re X (re.++ (str.to_re "/.ani") (re.union (str.to_re "?") (str.to_re "\u{5c}") (str.to_re "/")) (str.to_re "/smiU\u{a}"))))
(assert (str.in_re X (re.++ (str.to_re "AD") (re.+ (re.union (str.to_re " ") (str.to_re "\u{9}") (str.to_re "\u{a}") (str.to_re "\u{c}") (str.to_re "\u{d}"))) (str.to_re "c.goclick.com") (re.+ (re.union (re.range "0" "9") (re.range "A" "Z") (re.range "a" "z") (str.to_re "_"))) (str.to_re "asdbiz.bizfrom|roogoo|Current\u{a}"))))
(assert (str.in_re X (re.++ (str.to_re "//") ((_ re.loop 8 8) (re.union (re.range "a" "f") (re.range "0" "9"))) (str.to_re ".js?cp=/Umi\u{a}"))))
(assert (not (str.in_re X (re.++ (re.union (str.to_re "a") (str.to_re "A")) (str.to_re "\u{a}")))))
(assert (not (str.in_re X (re.union (re.++ (str.to_re "13") ((_ re.loop 4 4) (re.++ (re.opt (str.to_re " ")) (re.range "0" "9")))) (re.++ (str.to_re "1") (re.union (str.to_re "3") (str.to_re "8")) (str.to_re "00") ((_ re.loop 6 6) (re.++ (re.opt (str.to_re " ")) (re.range "0" "9")))) (re.++ (str.to_re "\u{a}") (re.opt (re.++ (re.union (re.++ (str.to_re "(0") (re.union (str.to_re "2") (str.to_re "3") (str.to_re "4") (str.to_re "7") (str.to_re "8")) (str.to_re ")")) (re.++ (str.to_re "0") (re.union (str.to_re "2") (str.to_re "3") (str.to_re "4") (str.to_re "7") (str.to_re "8")))) (re.opt (str.to_re " ")))) (re.range "0" "9") ((_ re.loop 7 7) (re.++ (re.opt (str.to_re " ")) (re.range "0" "9"))))))))
(check-sat)

(exit)
